
se = 80; % nombre de sessions
gr = 40; % nombre de grups de treball
cl = 12; % nombre de slots
minPapersPerSlot = 3; % minim nombre d'articles per sessio i slot
maxSesionsPar = 20; % maxim nombre de sessions paraleles

npMax = [6, 3, 5, 4, 3, 5, 5, 4, 6, 3, 5, 5]; % nombre maxim de papers per slot

np = [16, 7, 12, 9, 15, 3, 16, 19, 3, 6, 12, 12, 17, 3, 8, 8, 9, 3, 3, 5, 9, 7, 13, 15, 3, 3, 4, 20, 3, 3, 10, 20, 8, 6, 4, 7, 10, 16, 18, 6, 16, 9, 5, 3, 3, 6, 7, 11, 18, 6, 12, 15, 11, 7, 14, 5, 10, 12, 15, 20, 10, 12, 5, 4, 6, 5, 8, 11, 6, 9, 8, 4, 6, 7, 14, 12, 17, 16, 13, 7]; % nombre de papers acceptats a cada sessio

WG = [ {1}, {2}, {3}, {4}, {5,6,7}, {8}, {9,10}, {11}, {12}, {13}, {14,15,16}, {}, {}, {}, {17}, {18}, {19}, {20}, {21}, {22}, {23}, {24,25}, {26}, {27}, {28}, {29}, {}, {}, {30,31,32}, {33}, {34,35,36}, {}, {37}, {38,39}, {40}, {1}, {2,3,4}, {5}, {6}, {7}, {}, {8}, {9}, {10}, {11}, {12}, {}, {13}, {14,15,16}, {}, {}, {}, {17,18}, {19}, {20}, {21}, {22}, {23}, {}, {}, {24}, {25}, {}, {26}, {27}, {28}, {29}, {30}, {31,32}, {}, {33,34}, {35}, {36}, {}, {}, {37}, {38}, {39,40}, {1,2,3}, {4} ]; % grups per sessio

